GLPSOL--GLPK LP/MIP Solver 5.0
Parameter(s) specified in the command line:
 --lp ../modeles/10_69.lp --log 10_69.log
Reading problem data from '../modeles/10_69.lp'...
731 rows, 1400 columns, 4880 non-zeros
690 integer variables, all of which are binary
2147 lines were read
GLPK Integer Optimizer 5.0
731 rows, 1400 columns, 4880 non-zeros
690 integer variables, all of which are binary
Preprocessing...
700 constraint coefficient(s) were reduced
731 rows, 1390 columns, 4870 non-zeros
690 integer variables, all of which are binary
Scaling...
 A: min|aij| =  8.402e-04  max|aij| =  4.000e+00  ratio =  4.761e+03
GM: min|aij| =  1.204e-01  max|aij| =  8.307e+00  ratio =  6.900e+01
EQ: min|aij| =  1.449e-02  max|aij| =  1.000e+00  ratio =  6.900e+01
2N: min|aij| =  1.344e-02  max|aij| =  1.695e+00  ratio =  1.261e+02
Constructing initial basis...
Size of triangular part is 731
Solving LP relaxation...
GLPK Simplex Optimizer 5.0
731 rows, 1390 columns, 4870 non-zeros
      0: obj =   2.000000000e+01 inf =   4.950e+01 (21)
    109: obj =   4.959033613e-01 inf =   0.000e+00 (0)
*   332: obj =  -3.159782609e+00 inf =   8.737e-15 (0)
OPTIMAL LP SOLUTION FOUND
Integer optimization begins...
Long-step dual simplex will be used
+   332: mip =     not found yet >=              -inf        (1; 0)
+   336: >>>>>  -3.159782609e+00 >=  -3.159782609e+00   0.0% (2; 0)
+   336: mip =  -3.159782609e+00 >=     tree is empty   0.0% (0; 3)
INTEGER OPTIMAL SOLUTION FOUND
Time used:   0.0 secs
Memory used: 2.1 Mb (2156998 bytes)
